data/results/2026_03_23_13_36_09_set_exp_2_exp_2_n017_c005_g002_max.sol
# Objective value = 14
c_n0n3n16 3
c_n1n11n13 3
c_n6n8n10 2
c_n6n8n15 3
c_n7n8n12 3
y_n0n1 0
y_n1n2 1
y_n0n2 0
y_n1n3 1
y_n0n3 0
y_n1n4 1
y_n0n4 0
y_n1n5 1
y_n0n5 1
y_n1n6 1
y_n0n6 0
y_n1n7 1
y_n0n7 0
y_n1n8 1
y_n0n8 0
y_n1n9 1
y_n0n9 0
y_n1n10 1
y_n0n10 0
y_n1n11 0
y_n0n11 0
y_n1n12 1
y_n0n12 0
y_n1n13 0
y_n0n13 0
y_n1n14 1
y_n0n14 0
y_n1n15 1
y_n0n15 0
y_n1n16 1
y_n0n16 0
y_n2n3 1
y_n2n4 0
y_n2n5 1
y_n2n6 0
y_n2n7 0
y_n2n8 0
y_n2n9 0
y_n2n10 0
y_n2n11 0
y_n2n12 0
y_n2n13 0
y_n2n14 0
y_n2n15 0
y_n2n16 1
y_n3n4 0
y_n3n5 1
y_n3n6 0
y_n3n7 0
y_n3n8 0
y_n3n9 0
y_n3n10 0
y_n3n11 0
y_n3n12 0
y_n3n13 0
y_n3n14 0
y_n3n15 0
y_n3n16 0
y_n4n5 1
y_n4n6 0
y_n4n7 0
y_n4n8 0
y_n4n9 0
y_n4n10 0
y_n4n11 0
y_n4n12 0
y_n4n13 0
y_n4n14 0
y_n4n15 0
y_n4n16 1
y_n5n6 0
y_n5n7 0
y_n5n8 0
y_n5n9 0
y_n5n10 0
y_n5n11 0
y_n5n12 0
y_n5n13 0
y_n5n14 0
y_n5n15 0
y_n5n16 0
y_n6n7 1
y_n6n8 1
y_n6n9 0
y_n6n10 0
y_n6n11 0
y_n6n12 1
y_n6n13 0
y_n6n14 0
y_n6n15 0
y_n6n16 1
y_n7n8 0
y_n7n9 0
y_n7n10 0
y_n7n11 0
y_n7n12 0
y_n7n13 0
y_n7n14 0
y_n7n15 0
y_n7n16 1
y_n8n9 0
y_n8n10 0
y_n8n11 0
y_n8n12 1
y_n8n13 0
y_n8n14 0
y_n8n15 0
y_n8n16 1
y_n9n10 1
y_n9n11 0
y_n9n12 1
y_n9n13 0
y_n9n14 0
y_n9n15 1
y_n9n16 1
y_n10n11 0
y_n10n12 1
y_n10n13 0
y_n10n14 0
y_n10n15 1
y_n10n16 1
y_n11n12 1
y_n11n13 1
y_n11n14 1
y_n11n15 1
y_n11n16 1
y_n12n13 0
y_n12n14 0
y_n12n15 0
y_n12n16 1
y_n13n14 1
y_n13n15 1
y_n13n16 1
y_n14n15 1
y_n14n16 1
y_n15n16 1
pos_n0 15
pos_n1 2
pos_n2 12
pos_n3 14
pos_n4 11
pos_n5 16
pos_n6 7
pos_n7 10
pos_n8 8
pos_n9 4
pos_n10 5
pos_n11 0
pos_n12 9
pos_n13 1
pos_n14 3
pos_n15 6
pos_n16 13
z_n1n16 0
z_n1n3 0
z_n3n16 1
z_n0n11 0
z_n7n11 0
z_n11n13 1
z_n0n7 0
z_n0n13 0
z_n7n13 0
z_n3n7 0
z_n3n9 0
z_n3n10 0
z_n3n11 0
z_n3n15 0
z_n7n9 0
z_n7n10 0
z_n7n15 0
z_n9n10 0
z_n9n11 0
z_n9n15 0
z_n10n11 0
z_n10n15 0
z_n11n15 0
z_n2n14 0
z_n14n16 0
z_n0n14 0
z_n2n16 0
z_n0n2 0
z_n0n16 0
z_n5n11 0
z_n4n15 0
z_n8n10 0
z_n8n15 0
z_n2n12 0
z_n1n2 0
z_n2n8 0
z_n1n12 0
z_n8n12 1
z_n1n8 0
z_n10n12 0
z_n6n12 0
z_n12n15 0
z_n7n12 1
z_n6n10 0
z_n6n15 1
z_n6n7 0
z_n13n14 0
z_n2n13 0
z_n6n8 1
z_n2n6 0
z_n1n4 0
z_n2n4 0
z_n4n16 0
z_n4n13 0
z_n1n13 1
z_n13n16 0
z_n7n8 0
z_n1n9 0
z_n1n11 0
z_n5n6 0
z_n2n5 0
z_n5n8 0
z_n0n3 1
